<number of tasks>
250

<cycle time>
1000

<order strength>
0.895


<task times>
1 493
2 510
3 434
4 463
5 811
6 613
7 471
8 317
9 772
10 710
11 575
12 447
13 662
14 459
15 743
16 390
17 536
18 525
19 500
20 317
21 345
22 648
23 440
24 451
25 386
26 744
27 453
28 528
29 267
30 453
31 380
32 472
33 586
34 540
35 348
36 550
37 200
38 524
39 547
40 507
41 674
42 642
43 589
44 503
45 558
46 767
47 523
48 520
49 497
50 744
51 406
52 554
53 446
54 761
55 301
56 580
57 548
58 585
59 594
60 672
61 292
62 449
63 765
64 747
65 533
66 374
67 476
68 460
69 559
70 542
71 427
72 566
73 451
74 541
75 606
76 595
77 543
78 651
79 646
80 464
81 599
82 605
83 538
84 637
85 541
86 435
87 441
88 435
89 482
90 280
91 588
92 471
93 530
94 422
95 466
96 388
97 502
98 538
99 529
100 484
101 605
102 557
103 434
104 691
105 300
106 361
107 534
108 658
109 467
110 249
111 315
112 409
113 551
114 427
115 378
116 588
117 745
118 415
119 388
120 678
121 551
122 603
123 547
124 587
125 658
126 488
127 479
128 547
129 710
130 636
131 469
132 461
133 686
134 558
135 382
136 543
137 488
138 483
139 307
140 389
141 487
142 639
143 313
144 520
145 619
146 350
147 412
148 554
149 441
150 647
151 489
152 599
153 416
154 566
155 445
156 153
157 553
158 572
159 784
160 279
161 625
162 513
163 514
164 350
165 461
166 349
167 296
168 401
169 390
170 433
171 626
172 395
173 403
174 459
175 677
176 439
177 513
178 433
179 544
180 579
181 633
182 489
183 405
184 565
185 468
186 431
187 341
188 471
189 689
190 486
191 539
192 306
193 635
194 670
195 651
196 795
197 591
198 469
199 436
200 656
201 549
202 586
203 455
204 529
205 626
206 563
207 605
208 657
209 524
210 731
211 462
212 660
213 434
214 651
215 570
216 535
217 575
218 647
219 353
220 158
221 595
222 390
223 441
224 508
225 609
226 511
227 655
228 456
229 417
230 695
231 520
232 443
233 429
234 561
235 433
236 550
237 539
238 431
239 300
240 546
241 498
242 323
243 553
244 485
245 493
246 272
247 618
248 248
249 375
250 453

<precedence relations>
1,6
1,8
1,9
1,11
2,7
2,17
3,6
3,7
3,8
3,9
4,6
4,7
4,8
4,9
4,10
4,11
5,6
5,10
6,12
6,13
6,14
6,15
6,16
6,17
7,12
7,13
7,14
7,15
7,16
8,12
8,13
9,12
9,13
9,14
9,15
9,16
10,13
10,15
10,16
10,17
11,12
11,15
11,17
12,18
12,19
13,20
13,21
13,22
14,18
14,19
14,20
14,21
14,22
15,18
15,19
15,20
15,21
15,22
16,18
16,19
16,20
16,21
16,22
17,18
17,19
17,20
17,21
17,22
18,23
18,24
18,25
18,26
18,27
19,23
19,24
19,25
19,26
19,27
20,23
20,24
20,25
20,26
20,27
21,23
21,24
21,25
21,26
21,27
22,23
22,24
22,25
22,26
22,27
23,28
23,29
23,30
24,28
24,29
24,30
25,28
25,29
25,30
26,28
26,29
26,30
27,28
27,29
27,30
28,31
28,32
28,33
28,34
28,35
29,31
29,32
29,33
29,34
29,35
30,31
30,32
30,33
30,34
30,35
31,36
31,37
32,36
32,37
33,36
33,37
34,36
34,37
35,36
35,37
36,38
36,39
36,40
36,41
36,42
37,38
37,39
37,40
37,41
37,42
38,43
38,44
38,45
38,46
39,43
39,44
39,45
39,46
40,43
40,44
40,45
40,46
41,43
41,44
41,45
41,46
42,43
42,44
42,45
42,46
43,47
43,48
43,49
43,50
43,51
43,52
43,53
44,47
44,48
44,49
44,50
44,51
44,52
44,53
45,47
45,48
45,49
45,50
45,51
45,52
45,53
46,47
46,48
46,49
46,50
46,51
46,52
46,53
47,54
47,55
47,56
48,54
48,55
48,56
49,54
49,55
49,56
50,54
50,55
50,56
51,54
51,55
51,56
52,54
52,55
52,56
53,54
53,55
53,56
54,57
54,58
54,59
55,57
55,58
55,59
56,57
56,58
56,59
57,60
57,61
57,62
57,63
57,64
57,65
58,60
58,61
58,62
58,63
58,64
58,65
59,60
59,61
59,62
59,63
59,64
59,65
60,66
60,67
60,68
60,69
61,66
61,67
61,68
61,69
62,66
62,67
62,68
62,69
63,66
63,67
63,68
63,69
64,66
64,67
64,68
64,69
65,66
65,67
65,68
65,69
66,70
66,71
66,72
67,70
67,71
67,72
68,70
68,72
69,70
69,72
70,73
70,74
70,75
71,73
71,75
72,77
72,84
73,76
73,77
73,78
73,79
74,76
74,77
74,78
74,79
75,76
75,77
75,78
75,79
76,80
76,85
77,80
77,81
77,82
78,80
78,81
78,83
78,84
79,82
79,98
80,86
80,87
80,88
80,89
80,90
81,86
81,89
82,87
82,88
82,90
83,86
83,87
83,88
84,90
85,86
85,90
86,91
86,92
86,93
86,94
87,91
87,102
88,91
88,92
89,91
90,94
91,95
91,96
91,106
92,95
93,95
93,96
93,97
93,98
94,95
94,96
94,97
95,99
95,100
95,112
96,99
96,101
96,112
97,99
97,100
97,101
97,102
98,112
98,123
99,103
99,105
100,144
100,148
101,127
102,103
102,104
102,105
102,106
103,107
103,108
103,109
103,110
104,112
104,118
105,107
105,108
105,109
105,110
105,111
106,118
107,154
108,136
109,113
110,151
111,113
111,114
111,115
111,116
112,113
113,117
113,120
113,121
113,122
114,117
114,118
114,119
114,121
114,122
114,123
115,117
115,118
115,119
115,120
115,121
115,122
115,123
116,117
116,118
116,119
117,126
117,127
118,130
119,124
119,125
119,126
119,127
120,124
120,133
120,136
120,137
121,124
122,139
122,148
123,124
123,143
123,144
123,148
124,128
124,129
124,141
124,151
125,128
125,129
125,132
125,133
125,136
125,137
126,128
126,129
126,130
127,130
127,131
129,138
129,147
129,178
130,134
130,135
130,136
131,136
131,137
131,150
132,134
132,135
133,134
133,135
133,142
134,138
134,139
134,148
135,158
135,164
135,171
135,173
136,138
136,140
136,146
137,138
137,140
137,143
138,177
138,193
139,143
139,144
140,141
140,142
140,154
141,174
142,145
142,148
142,182
143,145
143,146
143,147
144,145
144,149
144,150
145,189
145,190
145,192
146,155
147,152
147,172
148,165
148,174
149,151
149,152
150,151
150,152
151,153
151,154
151,155
151,156
152,156
152,157
152,179
153,158
154,158
154,159
154,160
155,159
155,161
155,170
156,158
156,159
157,220
157,223
158,166
158,207
159,164
159,165
159,189
160,163
160,164
160,167
161,162
162,168
162,169
162,171
163,214
163,217
164,195
164,216
165,205
165,217
165,224
166,175
167,168
167,170
167,171
168,173
168,175
169,223
169,227
169,236
170,199
171,172
171,174
172,202
172,203
173,176
173,179
174,176
174,178
174,185
175,176
175,177
176,180
176,181
176,188
176,224
176,226
177,203
177,208
178,180
178,187
178,189
179,181
179,182
180,184
181,183
181,186
181,190
182,185
182,187
183,193
183,218
183,227
183,230
183,232
184,237
185,189
186,230
186,232
186,242
187,188
187,190
188,192
188,235
189,191
189,193
190,206
190,222
190,234
191,194
191,195
191,196
191,198
192,205
192,206
193,197
193,201
193,221
194,201
194,216
195,217
196,203
198,199
198,200
198,202
199,206
199,208
199,222
200,207
200,208
200,217
201,205
202,205
202,206
202,209
203,204
204,210
204,211
205,213
207,231
207,245
207,249
208,211
209,212
209,218
210,214
210,218
211,214
211,215
211,216
212,214
212,215
212,217
212,221
213,214
214,220
215,219
215,220
215,223
216,219
216,223
216,224
217,219
217,222
217,227
218,221
219,225
219,226
219,237
220,234
222,228
222,229
223,228
224,227
224,239
225,230
225,232
227,231
227,233
229,230
229,237
230,235
231,234
231,248
232,239
232,244
234,237
235,236
235,238
236,239
236,240
237,242
238,241
238,243
239,249
241,244
241,245
242,247
243,246
243,248
243,250

<end>
